50
1 0 36
2 0 20
2 1 65
3 0 18
3 1 51
3 2 17
4 0 74
4 1 53
4 2 21
4 3 15
5 0 16
5 1 44
5 2 79
5 3 3
5 4 16
6 0 56
6 1 70
6 2 16
6 3 48
6 4 34
6 5 35
7 0 43
7 1 57
7 2 47
7 3 15
7 4 11
7 5 24
7 6 42
8 0 63
8 1 65
8 2 59
8 3 77
8 4 20
8 5 43
8 6 16
8 7 6
9 0 68
9 1 20
9 2 25
9 3 33
9 4 28
9 5 53
9 6 55
9 7 28
9 8 79
10 0 80
10 1 9
10 2 16
10 3 29
10 4 74
10 5 23
10 6 21
10 7 72
10 8 2
10 9 41
11 0 30
11 1 65
11 2 34
11 3 53
11 4 53
11 5 44
11 6 52
11 7 18
11 8 64
11 9 17
11 10 68
12 0 39
12 1 54
12 2 38
12 3 52
12 4 75
12 5 44
12 6 75
12 7 48
12 8 44
12 9 65
12 10 80
12 11 65
13 0 47
13 1 18
13 2 40
13 3 23
13 4 67
13 5 6
13 6 2
13 7 9
13 8 62
13 9 51
13 10 31
13 11 25
13 12 65
14 0 72
14 1 55
14 2 21
14 3 53
14 4 35
14 5 13
14 6 73
14 7 48
14 8 1
14 9 39
14 10 79
14 11 79
14 12 3
14 13 26
15 0 24
15 1 38
15 2 12
15 3 32
15 4 44
15 5 54
15 6 44
15 7 20
15 8 22
15 9 18
15 10 61
15 11 34
15 12 6
15 13 43
15 14 3
16 0 76
16 1 69
16 2 59
16 3 38
16 4 8
16 5 13
16 6 39
16 7 56
16 8 80
16 9 38
16 10 49
16 11 48
16 12 37
16 13 18
16 14 78
16 15 33
17 0 13
17 1 5
17 2 70
17 3 28
17 4 79
17 5 10
17 6 67
17 7 19
17 8 19
17 9 69
17 10 56
17 11 16
17 12 77
17 13 43
17 14 27
17 15 16
17 16 48
18 0 8
18 1 30
18 2 69
18 3 65
18 4 52
18 5 61
18 6 9
18 7 77
18 8 17
18 9 10
18 10 33
18 11 73
18 12 50
18 13 9
18 14 53
18 15 68
18 16 8
18 17 23
19 0 6
19 1 30
19 2 18
19 3 26
19 4 41
19 5 18
19 6 74
19 7 24
19 8 14
19 9 13
19 10 29
19 11 51
19 12 53
19 13 73
19 14 73
19 15 76
19 16 52
19 17 29
19 18 63
20 0 43
20 1 66
20 2 14
20 3 52
20 4 52
20 5 64
20 6 59
20 7 52
20 8 55
20 9 9
20 10 78
20 11 34
20 12 64
20 13 49
20 14 30
20 15 19
20 16 48
20 17 56
20 18 40
20 19 8
21 0 12
21 1 26
21 2 50
21 3 47
21 4 19
21 5 63
21 6 28
21 7 75
21 8 40
21 9 41
21 10 17
21 11 19
21 12 24
21 13 43
21 14 76
21 15 5
21 16 6
21 17 30
21 18 49
21 19 68
21 20 45
22 0 28
22 1 57
22 2 65
22 3 33
22 4 57
22 5 36
22 6 9
22 7 61
22 8 6
22 9 22
22 10 60
22 11 79
22 12 79
22 13 36
22 14 24
22 15 49
22 16 49
22 17 49
22 18 40
22 19 13
22 20 2
22 21 14
23 0 17
23 1 29
23 2 29
23 3 20
23 4 27
23 5 2
23 6 74
23 7 29
23 8 67
23 9 40
23 10 9
23 11 15
23 12 50
23 13 42
23 14 43
23 15 8
23 16 24
23 17 76
23 18 67
23 19 7
23 20 66
23 21 35
23 22 9
24 0 48
24 1 45
24 2 33
24 3 66
24 4 10
24 5 41
24 6 51
24 7 53
24 8 62
24 9 31
24 10 21
24 11 63
24 12 3
24 13 79
24 14 23
24 15 27
24 16 35
24 17 9
24 18 48
24 19 20
24 20 75
24 21 63
24 22 22
24 23 45
25 0 19
25 1 52
25 2 56
25 3 77
25 4 19
25 5 63
25 6 42
25 7 18
25 8 25
25 9 24
25 10 62
25 11 50
25 12 31
25 13 29
25 14 48
25 15 51
25 16 56
25 17 61
25 18 14
25 19 42
25 20 62
25 21 73
25 22 16
25 23 38
25 24 21
26 0 80
26 1 54
26 2 43
26 3 23
26 4 50
26 5 76
26 6 38
26 7 52
26 8 25
26 9 33
26 10 11
26 11 11
26 12 44
26 13 2
26 14 22
26 15 45
26 16 18
26 17 67
26 18 51
26 19 33
26 20 67
26 21 6
26 22 68
26 23 12
26 24 48
26 25 26
27 0 36
27 1 59
27 2 36
27 3 7
27 4 7
27 5 55
27 6 45
27 7 59
27 8 55
27 9 61
27 10 69
27 11 35
27 12 8
27 13 28
27 14 51
27 15 59
27 16 54
27 17 63
27 18 24
27 19 71
27 20 44
27 21 33
27 22 59
27 23 4
27 24 67
27 25 7
27 26 3
28 0 71
28 1 59
28 2 26
28 3 28
28 4 29
28 5 42
28 6 36
28 7 14
28 8 50
28 9 60
28 10 27
28 11 42
28 12 23
28 13 13
28 14 41
28 15 35
28 16 45
28 17 22
28 18 4
28 19 9
28 20 77
28 21 29
28 22 11
28 23 38
28 24 52
28 25 49
28 26 34
28 27 66
29 0 48
29 1 34
29 2 51
29 3 20
29 4 80
29 5 22
29 6 61
29 7 40
29 8 65
29 9 51
29 10 11
29 11 69
29 12 24
29 13 58
29 14 5
29 15 10
29 16 67
29 17 10
29 18 54
29 19 38
29 20 45
29 21 62
29 22 38
29 23 19
29 24 35
29 25 38
29 26 39
29 27 53
29 28 66
30 0 14
30 1 7
30 2 80
30 3 70
30 4 62
30 5 80
30 6 70
30 7 2
30 8 63
30 9 61
30 10 42
30 11 39
30 12 49
30 13 5
30 14 29
30 15 61
30 16 72
30 17 27
30 18 6
30 19 18
30 20 30
30 21 66
30 22 11
30 23 38
30 24 17
30 25 68
30 26 36
30 27 79
30 28 44
30 29 74
31 0 37
31 1 26
31 2 2
31 3 17
31 4 10
31 5 65
31 6 23
31 7 19
31 8 27
31 9 39
31 10 72
31 11 67
31 12 63
31 13 65
31 14 79
31 15 77
31 16 42
31 17 21
31 18 54
31 19 53
31 20 36
31 21 7
31 22 15
31 23 29
31 24 47
31 25 39
31 26 78
31 27 23
31 28 80
31 29 25
31 30 33
32 0 56
32 1 36
32 2 67
32 3 72
32 4 27
32 5 35
32 6 25
32 7 29
32 8 74
32 9 80
32 10 31
32 11 36
32 12 2
32 13 35
32 14 26
32 15 4
32 16 37
32 17 9
32 18 6
32 19 72
32 20 78
32 21 45
32 22 16
32 23 21
32 24 72
32 25 68
32 26 36
32 27 5
32 28 12
32 29 71
32 30 29
32 31 80
33 0 54
33 1 5
33 2 22
33 3 37
33 4 10
33 5 29
33 6 54
33 7 19
33 8 47
33 9 2
33 10 38
33 11 29
33 12 30
33 13 25
33 14 3
33 15 52
33 16 39
33 17 54
33 18 67
33 19 59
33 20 3
33 21 73
33 22 77
33 23 49
33 24 58
33 25 58
33 26 13
33 27 4
33 28 42
33 29 64
33 30 64
33 31 24
33 32 54
34 0 36
34 1 13
34 2 10
34 3 64
34 4 35
34 5 77
34 6 75
34 7 7
34 8 29
34 9 59
34 10 47
34 11 29
34 12 69
34 13 68
34 14 11
34 15 52
34 16 41
34 17 2
34 18 46
34 19 68
34 20 8
34 21 60
34 22 41
34 23 12
34 24 59
34 25 69
34 26 80
34 27 47
34 28 73
34 29 29
34 30 22
34 31 74
34 32 38
34 33 2
35 0 80
35 1 42
35 2 19
35 3 36
35 4 13
35 5 4
35 6 44
35 7 62
35 8 80
35 9 16
35 10 2
35 11 75
35 12 22
35 13 52
35 14 40
35 15 28
35 16 79
35 17 7
35 18 54
35 19 24
35 20 26
35 21 74
35 22 79
35 23 51
35 24 26
35 25 79
35 26 73
35 27 24
35 28 58
35 29 38
35 30 46
35 31 65
35 32 64
35 33 65
35 34 25
36 0 79
36 1 17
36 2 19
36 3 57
36 4 17
36 5 24
36 6 27
36 7 14
36 8 17
36 9 13
36 10 55
36 11 7
36 12 9
36 13 45
36 14 37
36 15 6
36 16 16
36 17 38
36 18 54
36 19 4
36 20 60
36 21 57
36 22 25
36 23 65
36 24 59
36 25 19
36 26 45
36 27 51
36 28 25
36 29 60
36 30 74
36 31 80
36 32 36
36 33 69
36 34 79
36 35 33
37 0 8
37 1 72
37 2 69
37 3 79
37 4 52
37 5 7
37 6 73
37 7 8
37 8 53
37 9 71
37 10 13
37 11 46
37 12 17
37 13 27
37 14 24
37 15 78
37 16 11
37 17 4
37 18 36
37 19 76
37 20 11
37 21 3
37 22 3
37 23 75
37 24 44
37 25 39
37 26 26
37 27 33
37 28 10
37 29 24
37 30 46
37 31 48
37 32 27
37 33 69
37 34 66
37 35 30
37 36 61
38 0 38
38 1 61
38 2 60
38 3 63
38 4 28
38 5 19
38 6 9
38 7 57
38 8 11
38 9 28
38 10 5
38 11 59
38 12 25
38 13 2
38 14 64
38 15 52
38 16 79
38 17 64
38 18 7
38 19 13
38 20 77
38 21 2
38 22 26
38 23 8
38 24 1
38 25 55
38 26 36
38 27 3
38 28 64
38 29 59
38 30 30
38 31 78
38 32 63
38 33 32
38 34 39
38 35 10
38 36 15
38 37 2
39 0 19
39 1 11
39 2 70
39 3 36
39 4 70
39 5 79
39 6 37
39 7 62
39 8 74
39 9 47
39 10 30
39 11 12
39 12 67
39 13 70
39 14 26
39 15 80
39 16 6
39 17 56
39 18 57
39 19 61
39 20 29
39 21 80
39 22 62
39 23 75
39 24 6
39 25 3
39 26 33
39 27 10
39 28 71
39 29 45
39 30 20
39 31 42
39 32 3
39 33 23
39 34 13
39 35 59
39 36 7
39 37 9
39 38 31
40 0 78
40 1 71
40 2 59
40 3 73
40 4 18
40 5 7
40 6 67
40 7 72
40 8 52
40 9 35
40 10 68
40 11 17
40 12 36
40 13 62
40 14 4
40 15 16
40 16 79
40 17 40
40 18 35
40 19 48
40 20 63
40 21 49
40 22 49
40 23 1
40 24 67
40 25 80
40 26 68
40 27 20
40 28 16
40 29 33
40 30 52
40 31 60
40 32 68
40 33 13
40 34 69
40 35 48
40 36 34
40 37 58
40 38 6
40 39 2
41 0 11
41 1 47
41 2 45
41 3 28
41 4 77
41 5 12
41 6 39
41 7 60
41 8 8
41 9 41
41 10 62
41 11 27
41 12 13
41 13 22
41 14 72
41 15 32
41 16 45
41 17 77
41 18 57
41 19 66
41 20 11
41 21 41
41 22 62
41 23 77
41 24 75
41 25 1
41 26 4
41 27 53
41 28 62
41 29 45
41 30 69
41 31 79
41 32 66
41 33 79
41 34 19
41 35 74
41 36 42
41 37 66
41 38 38
41 39 22
41 40 43
42 0 60
42 1 18
42 2 23
42 3 31
42 4 29
42 5 39
42 6 62
42 7 15
42 8 77
42 9 34
42 10 77
42 11 44
42 12 71
42 13 58
42 14 4
42 15 46
42 16 33
42 17 11
42 18 33
42 19 28
42 20 20
42 21 13
42 22 72
42 23 55
42 24 21
42 25 13
42 26 42
42 27 62
42 28 75
42 29 36
42 30 56
42 31 2
42 32 41
42 33 72
42 34 52
42 35 27
42 36 11
42 37 25
42 38 63
42 39 41
42 40 17
42 41 47
43 0 3
43 1 45
43 2 63
43 3 20
43 4 44
43 5 18
43 6 76
43 7 8
43 8 14
43 9 56
43 10 11
43 11 80
43 12 53
43 13 56
43 14 13
43 15 69
43 16 42
43 17 12
43 18 26
43 19 43
43 20 74
43 21 11
43 22 53
43 23 21
43 24 10
43 25 6
43 26 44
43 27 49
43 28 22
43 29 4
43 30 75
43 31 21
43 32 51
43 33 63
43 34 11
43 35 75
43 36 37
43 37 73
43 38 59
43 39 40
43 40 18
43 41 20
43 42 18
44 0 73
44 1 66
44 2 21
44 3 32
44 4 41
44 5 74
44 6 25
44 7 37
44 8 74
44 9 59
44 10 56
44 11 43
44 12 43
44 13 61
44 14 18
44 15 9
44 16 24
44 17 17
44 18 34
44 19 28
44 20 29
44 21 32
44 22 62
44 23 31
44 24 56
44 25 8
44 26 53
44 27 26
44 28 67
44 29 52
44 30 52
44 31 5
44 32 25
44 33 40
44 34 49
44 35 50
44 36 31
44 37 23
44 38 43
44 39 24
44 40 27
44 41 59
44 42 21
44 43 70
45 0 9
45 1 73
45 2 30
45 3 71
45 4 31
45 5 48
45 6 65
45 7 40
45 8 6
45 9 3
45 10 31
45 11 42
45 12 11
45 13 4
45 14 68
45 15 47
45 16 80
45 17 21
45 18 23
45 19 52
45 20 71
45 21 22
45 22 14
45 23 23
45 24 15
45 25 51
45 26 10
45 27 22
45 28 27
45 29 17
45 30 34
45 31 53
45 32 79
45 33 7
45 34 39
45 35 22
45 36 29
45 37 27
45 38 24
45 39 16
45 40 22
45 41 11
45 42 19
45 43 68
45 44 75
46 0 2
46 1 52
46 2 51
46 3 51
46 4 43
46 5 47
46 6 26
46 7 4
46 8 9
46 9 3
46 10 43
46 11 43
46 12 30
46 13 68
46 14 7
46 15 68
46 16 3
46 17 20
46 18 10
46 19 6
46 20 76
46 21 27
46 22 3
46 23 53
46 24 14
46 25 25
46 26 76
46 27 72
46 28 8
46 29 4
46 30 80
46 31 25
46 32 66
46 33 34
46 34 61
46 35 49
46 36 39
46 37 40
46 38 56
46 39 28
46 40 23
46 41 27
46 42 14
46 43 26
46 44 13
46 45 23
47 0 59
47 1 39
47 2 51
47 3 59
47 4 44
47 5 60
47 6 8
47 7 71
47 8 10
47 9 80
47 10 50
47 11 2
47 12 65
47 13 32
47 14 8
47 15 10
47 16 62
47 17 30
47 18 16
47 19 9
47 20 22
47 21 28
47 22 47
47 23 67
47 24 43
47 25 63
47 26 19
47 27 51
47 28 41
47 29 11
47 30 68
47 31 21
47 32 26
47 33 77
47 34 66
47 35 12
47 36 22
47 37 10
47 38 7
47 39 55
47 40 48
47 41 67
47 42 63
47 43 60
47 44 26
47 45 7
47 46 71
48 0 56
48 1 5
48 2 46
48 3 61
48 4 54
48 5 37
48 6 23
48 7 53
48 8 59
48 9 57
48 10 28
48 11 41
48 12 30
48 13 26
48 14 51
48 15 30
48 16 22
48 17 1
48 18 43
48 19 62
48 20 40
48 21 42
48 22 43
48 23 20
48 24 24
48 25 46
48 26 60
48 27 31
48 28 31
48 29 37
48 30 49
48 31 64
48 32 30
48 33 63
48 34 6
48 35 75
48 36 39
48 37 37
48 38 19
48 39 64
48 40 4
48 41 2
48 42 24
48 43 53
48 44 18
48 45 56
48 46 3
48 47 54
49 0 71
49 1 75
49 2 32
49 3 67
49 4 69
49 5 26
49 6 73
49 7 54
49 8 55
49 9 6
49 10 66
49 11 43
49 12 62
49 13 34
49 14 24
49 15 48
49 16 40
49 17 60
49 18 13
49 19 65
49 20 58
49 21 17
49 22 70
49 23 23
49 24 59
49 25 17
49 26 55
49 27 12
49 28 44
49 29 80
49 30 33
49 31 45
49 32 9
49 33 6
49 34 5
49 35 45
49 36 68
49 37 38
49 38 17
49 39 4
49 40 54
49 41 79
49 42 8
49 43 61
49 44 9
49 45 54
49 46 49
49 47 33
49 48 49
